(set-option :produce-models true)
(define-fun ceil ((x Real)) Int (ite (= (to_int x) x) (to_int x) (+ (to_int x) 1)))
(define-fun min2 ((x Int) (y Int)) Int (ite (< x y) x y))
(define-fun max2 ((x Int) (y Int)) Int (ite (> x y) x y))
(define-fun sqrt ((x Real)) Real (^ x 0.5))

(declare-const hidden_states_size0 Int)
(set-info :example-hidden_states_size0 4)
(declare-const hidden_states_size1 Int)
(set-info :example-hidden_states_size1 512)
(declare-const hidden_states_size2 Int)
(set-info :example-hidden_states_size2 768)
(declare-const hidden_states_stride0 Int)
(set-info :example-hidden_states_stride0 393216)
(declare-const hidden_states_stride1 Int)
(set-info :example-hidden_states_stride1 768)
(declare-const hidden_states_stride2 Int)
(set-info :example-hidden_states_stride2 1)
(declare-const hidden_states_storage_offset Int)
(set-info :example-hidden_states_storage_offset 0)
(define-fun ge () Bool (>= hidden_states_size0 0))
(assert ge)
(define-fun ge_1 () Bool (>= hidden_states_size1 0))
(assert ge_1)
(define-fun ge_2 () Bool (>= hidden_states_size2 0))
(assert ge_2)
(define-fun eq () Bool (= hidden_states_size0 0))
(define-fun not_ () Bool (not eq))
(assert not_)
(define-fun sub () Int (- hidden_states_size0 1))
(define-fun mul () Int (* hidden_states_stride0 sub))
(define-fun add () Int (+ 1 mul))
(define-fun eq_1 () Bool (= hidden_states_size1 0))
(define-fun not__1 () Bool (not eq_1))
(assert not__1)
(define-fun sub_1 () Int (- hidden_states_size1 1))
(define-fun mul_1 () Int (* hidden_states_stride1 sub_1))
(define-fun add_1 () Int (+ add mul_1))
(define-fun eq_2 () Bool (= hidden_states_size2 0))
(define-fun not__2 () Bool (not eq_2))
(assert not__2)
(define-fun sub_2 () Int (- hidden_states_size2 1))
(define-fun mul_2 () Int (* hidden_states_stride2 sub_2))
(define-fun add_2 () Int (+ add_1 mul_2))
(define-fun mul_3 () Int (* 4 add_2))
(define-fun mul_4 () Int (* hidden_states_size0 hidden_states_size1))
(define-fun mul_5 () Int (* mul_4 hidden_states_size2))
(define-fun eq_3 () Bool (= mul_5 0))
(define-fun not__3 () Bool (not eq_3))
(assert not__3)
(define-fun eq_4 () Bool (= hidden_states_size2 1))
(define-fun not__4 () Bool (not eq_4))
(assert not__4)
(define-fun eq_5 () Bool (= hidden_states_stride2 1))
(assert eq_5)
(define-fun eq_6 () Bool (= hidden_states_size1 1))
(define-fun not__5 () Bool (not eq_6))
(assert not__5)
(define-fun eq_7 () Bool (= hidden_states_stride1 hidden_states_size2))
(assert eq_7)
(define-fun mul_6 () Int (* hidden_states_size2 hidden_states_size1))
(define-fun eq_8 () Bool (= hidden_states_size0 1))
(define-fun not__6 () Bool (not eq_8))
(assert not__6)
(define-fun eq_9 () Bool (= hidden_states_stride0 mul_6))
(assert eq_9)
(define-fun mul_7 () Int (* mul_6 hidden_states_size0))
(define-fun eq_10 () Bool (= hidden_states_size0 hidden_states_size0))
(assert eq_10)
(define-fun eq_11 () Bool (= hidden_states_size1 hidden_states_size1))
(assert eq_11)
(define-fun eq_12 () Bool (= hidden_states_size2 hidden_states_size2))
(assert eq_12)
(define-fun eq_13 () Bool (= hidden_states_stride2 0))
(define-fun not__7 () Bool (not eq_13))
(assert not__7)
(define-fun eq_14 () Bool (= hidden_states_stride1 0))
(define-fun not__8 () Bool (not eq_14))
(assert not__8)
(define-fun lt () Bool (< hidden_states_stride2 hidden_states_stride1))
(assert lt)
(define-fun eq_15 () Bool (= hidden_states_stride0 0))
(define-fun not__9 () Bool (not eq_15))
(assert not__9)
(define-fun lt_1 () Bool (< hidden_states_stride1 hidden_states_stride0))
(assert lt_1)
(define-fun mul_8 () Int (* mul_6 sub))
(define-fun add_3 () Int (+ 1 mul_8))
(define-fun mul_9 () Int (* hidden_states_size2 sub_1))
(define-fun add_4 () Int (+ add_3 mul_9))
(define-fun add_5 () Int (+ add_4 sub_2))
(define-fun mul_10 () Int (* 4 add_5))
(define-fun eq_16 () Bool (= mul_6 mul_6))
(assert eq_16)
(define-fun ge_3 () Bool (>= hidden_states_storage_offset 0))
(assert ge_3)
(define-fun add_6 () Int (+ hidden_states_storage_offset add_2))
(define-fun mul_11 () Int (* 4 add_6))
(declare-const attention_mask_size0 Int)
(set-info :example-attention_mask_size0 4)
(declare-const attention_mask_size1 Int)
(set-info :example-attention_mask_size1 1)
(declare-const attention_mask_size2 Int)
(set-info :example-attention_mask_size2 512)
(declare-const attention_mask_size3 Int)
(set-info :example-attention_mask_size3 512)
(declare-const attention_mask_stride0 Int)
(set-info :example-attention_mask_stride0 262144)
(declare-const attention_mask_stride1 Int)
(set-info :example-attention_mask_stride1 262144)
(declare-const attention_mask_stride2 Int)
(set-info :example-attention_mask_stride2 512)
(declare-const attention_mask_stride3 Int)
(set-info :example-attention_mask_stride3 1)
(declare-const attention_mask_storage_offset Int)
(set-info :example-attention_mask_storage_offset 0)
(define-fun ge_4 () Bool (>= attention_mask_size0 0))
(assert ge_4)
(define-fun ge_5 () Bool (>= attention_mask_size1 0))
(assert ge_5)
(define-fun ge_6 () Bool (>= attention_mask_size2 0))
(assert ge_6)
(define-fun ge_7 () Bool (>= attention_mask_size3 0))
(assert ge_7)
(define-fun eq_17 () Bool (= attention_mask_size0 0))
(define-fun not__10 () Bool (not eq_17))
(assert not__10)
(define-fun sub_3 () Int (- attention_mask_size0 1))
(define-fun mul_12 () Int (* attention_mask_stride0 sub_3))
(define-fun add_7 () Int (+ 1 mul_12))
(define-fun eq_18 () Bool (= attention_mask_size1 0))
(define-fun not__11 () Bool (not eq_18))
(assert not__11)
(define-fun sub_4 () Int (- attention_mask_size1 1))
(define-fun mul_13 () Int (* attention_mask_stride1 sub_4))
(define-fun add_8 () Int (+ add_7 mul_13))
(define-fun eq_19 () Bool (= attention_mask_size2 0))
(define-fun not__12 () Bool (not eq_19))
(assert not__12)
(define-fun sub_5 () Int (- attention_mask_size2 1))
(define-fun mul_14 () Int (* attention_mask_stride2 sub_5))
(define-fun add_9 () Int (+ add_8 mul_14))
(define-fun eq_20 () Bool (= attention_mask_size3 0))
(define-fun not__13 () Bool (not eq_20))
(assert not__13)
(define-fun sub_6 () Int (- attention_mask_size3 1))
(define-fun mul_15 () Int (* attention_mask_stride3 sub_6))
(define-fun add_10 () Int (+ add_9 mul_15))
(define-fun mul_16 () Int (* 4 add_10))
(define-fun mul_17 () Int (* attention_mask_size0 attention_mask_size1))
(define-fun mul_18 () Int (* mul_17 attention_mask_size2))
(define-fun mul_19 () Int (* mul_18 attention_mask_size3))
(define-fun eq_21 () Bool (= mul_19 0))
(define-fun not__14 () Bool (not eq_21))
(assert not__14)
(define-fun eq_22 () Bool (= attention_mask_size3 1))
(define-fun not__15 () Bool (not eq_22))
(assert not__15)
(define-fun eq_23 () Bool (= attention_mask_stride3 1))
(assert eq_23)
(define-fun eq_24 () Bool (= attention_mask_size2 1))
(define-fun not__16 () Bool (not eq_24))
(assert not__16)
(define-fun eq_25 () Bool (= attention_mask_stride2 attention_mask_size3))
(assert eq_25)
(define-fun mul_20 () Int (* attention_mask_size3 attention_mask_size2))
(define-fun eq_26 () Bool (= attention_mask_size1 1))
(assert eq_26)
(define-fun eq_27 () Bool (= attention_mask_size0 1))
(define-fun not__17 () Bool (not eq_27))
(assert not__17)
(define-fun eq_28 () Bool (= attention_mask_stride0 mul_20))
(assert eq_28)
(define-fun mul_21 () Int (* mul_20 attention_mask_size0))
(define-fun eq_29 () Bool (= attention_mask_stride1 0))
(define-fun not__18 () Bool (not eq_29))
(assert not__18)
(define-fun lt_2 () Bool (< attention_mask_stride1 0))
(define-fun not__19 () Bool (not lt_2))
(assert not__19)
(define-fun gt () Bool (> attention_mask_size1 1))
(define-fun not__20 () Bool (not gt))
(assert not__20)
(define-fun lt_3 () Bool (< attention_mask_stride3 attention_mask_stride1))
(assert lt_3)
(define-fun ge_8 () Bool (>= attention_mask_storage_offset 0))
(assert ge_8)
(define-fun add_11 () Int (+ attention_mask_storage_offset add_10))
(define-fun mul_22 () Int (* 4 add_11))
(define-fun eq_30 () Bool (= mul_4 -1))
(define-fun not__21 () Bool (not eq_30))
(assert not__21)
(define-fun ge_9 () Bool (>= mul_4 0))
(assert ge_9)
(define-fun eq_31 () Bool (= hidden_states_size2 -1))
(define-fun not__22 () Bool (not eq_31))
(assert not__22)
(define-fun eq_32 () Bool (= mul_5 mul_5))
(assert eq_32)
(define-fun eq_33 () Bool (= hidden_states_size0 mul_4))
(define-fun not__23 () Bool (not eq_33))
(assert not__23)
(define-fun eq_34 () Bool (= mul_4 hidden_states_size0))
(define-fun not__24 () Bool (not eq_34))
(assert not__24)
(define-fun mod () Int (mod hidden_states_size0 mul_4))
(define-fun eq_35 () Bool (= mod 0))
(define-fun not__25 () Bool (not eq_35))
(assert not__25)
(define-fun mod_1 () Int (mod mul_4 mul_4))
(define-fun eq_36 () Bool (= mod_1 0))
(assert eq_36)
(define-fun mul_23 () Int (* hidden_states_size1 hidden_states_size0))
(define-fun lt_4 () Bool (< hidden_states_stride0 hidden_states_stride1))
(define-fun not__26 () Bool (not lt_4))
(assert not__26)
(define-fun gt_1 () Bool (> mul_5 0))
(assert gt_1)
(define-fun mul_24 () Int (* hidden_states_stride1 hidden_states_size1))
(define-fun eq_37 () Bool (= hidden_states_stride0 mul_24))
(assert eq_37)
(define-fun mul_25 () Int (* mul_23 hidden_states_size2))
(define-fun eq_38 () Bool (= mul_25 0))
(define-fun not__27 () Bool (not eq_38))
(assert not__27)
(define-fun eq_39 () Bool (= mul_23 1))
(define-fun not__28 () Bool (not eq_39))
(assert not__28)
(define-fun mul_26 () Int (* hidden_states_size2 mul_23))
(define-fun eq_40 () Bool (= mul_4 mul_4))
(assert eq_40)
(define-fun eq_41 () Bool (= hidden_states_size2 768))
(assert eq_41)
(define-fun ge_10 () Bool (>= mul_23 0))
(assert ge_10)
(define-fun eq_42 () Bool (= mul_23 0))
(define-fun not__29 () Bool (not eq_42))
(assert not__29)
(define-fun mul_27 () Int (* 768 mul_23))
(define-fun sub_7 () Int (- mul_23 1))
(define-fun mul_28 () Int (* 768 sub_7))
(define-fun add_12 () Int (+ 1 mul_28))
(define-fun add_13 () Int (+ add_12 767))
(define-fun mul_29 () Int (* 4 add_13))
(define-fun mul_30 () Int (* mul_23 768))
(define-fun eq_43 () Bool (= mul_30 0))
(define-fun not__30 () Bool (not eq_43))
(assert not__30)
(define-fun lt_5 () Bool (< mul_23 0))
(define-fun not__31 () Bool (not lt_5))
(assert not__31)
(define-fun eq_44 () Bool (= mul_23 mul_23))
(assert eq_44)
(define-fun lt_6 () Bool (< mul_23 2))
(define-fun not__32 () Bool (not lt_6))
(assert not__32)
(define-fun eq_45 () Bool (= hidden_states_size0 -1))
(define-fun not__33 () Bool (not eq_45))
(assert not__33)
(define-fun eq_46 () Bool (= hidden_states_size1 -1))
(define-fun not__34 () Bool (not eq_46))
(assert not__34)
(define-fun mul_31 () Int (* mul_4 768))
(define-fun eq_47 () Bool (= mul_30 mul_31))
(assert eq_47)
(define-fun eq_48 () Bool (= mul_23 hidden_states_size0))
(define-fun not__35 () Bool (not eq_48))
(assert not__35)
(define-fun eq_49 () Bool (= hidden_states_size0 mul_23))
(define-fun not__36 () Bool (not eq_49))
(assert not__36)
(define-fun mod_2 () Int (mod mul_23 hidden_states_size0))
(define-fun eq_50 () Bool (= mod_2 0))
(assert eq_50)
(define-fun floordiv () Int (div mul_23 hidden_states_size0))
(define-fun mul_32 () Int (* 768 floordiv))
(define-fun mul_33 () Int (* hidden_states_size0 floordiv))
(define-fun mul_34 () Int (* mul_33 768))
(define-fun eq_51 () Bool (= mul_34 0))
(define-fun not__37 () Bool (not eq_51))
(assert not__37)
(define-fun eq_52 () Bool (= floordiv 1))
(define-fun not__38 () Bool (not eq_52))
(assert not__38)
(define-fun eq_53 () Bool (= mul_32 mul_32))
(assert eq_53)
(define-fun mul_35 () Int (* mul_32 hidden_states_size0))
(define-fun eq_54 () Bool (= hidden_states_size1 floordiv))
(assert eq_54)
(define-fun lt_7 () Bool (< floordiv 0))
(define-fun not__39 () Bool (not lt_7))
(assert not__39)
(define-fun lt_8 () Bool (< hidden_states_size0 0))
(define-fun not__40 () Bool (not lt_8))
(assert not__40)
(define-fun eq_55 () Bool (= floordiv floordiv))
(assert eq_55)
(define-fun eq_56 () Bool (= mul_32 0))
(define-fun not__41 () Bool (not eq_56))
(assert not__41)
(define-fun gt_2 () Bool (> mul_32 768))
(assert gt_2)
(define-fun ge_11 () Bool (>= floordiv 0))
(assert ge_11)
(define-fun eq_57 () Bool (= floordiv 0))
(define-fun not__42 () Bool (not eq_57))
(assert not__42)
(define-fun mul_36 () Int (* mul_32 sub))
(define-fun add_14 () Int (+ 1 mul_36))
(define-fun sub_8 () Int (- floordiv 1))
(define-fun mul_37 () Int (* 768 sub_8))
(define-fun add_15 () Int (+ add_14 mul_37))
(define-fun add_16 () Int (+ add_15 767))
(define-fun mul_38 () Int (* 4 add_16))
(define-fun mul_39 () Int (* hidden_states_size0 12))
(define-fun mul_40 () Int (* mul_39 64))
(define-fun eq_58 () Bool (= mul_34 mul_40))
(define-fun not__43 () Bool (not eq_58))
(assert not__43)
(define-fun gt_3 () Bool (> mul_40 0))
(assert gt_3)
(define-fun mod_3 () Int (mod mul_34 mul_40))
(define-fun eq_59 () Bool (= mod_3 0))
(assert eq_59)
(define-fun eq_60 () Bool (= mul_40 0))
(define-fun not__44 () Bool (not eq_60))
(assert not__44)
(define-fun floordiv_1 () Int (div mul_34 mul_40))
(define-fun eq_61 () Bool (= floordiv floordiv_1))
(assert eq_61)
(define-fun eq_62 () Bool (= floordiv_1 floordiv))
(assert eq_62)
(define-fun mul_41 () Int (* mul_33 12))
(define-fun mul_42 () Int (* mul_41 64))
(define-fun eq_63 () Bool (= mul_42 0))
(define-fun not__45 () Bool (not eq_63))
(assert not__45)
(define-fun gt_4 () Bool (> floordiv 1))
(assert gt_4)
(define-fun lt_9 () Bool (< 1 mul_32))
(assert lt_9)
(define-fun mul_43 () Int (* mul_39 floordiv))
(define-fun mul_44 () Int (* mul_43 64))
(define-fun eq_64 () Bool (= mul_44 0))
(define-fun not__46 () Bool (not eq_64))
(assert not__46)
(define-fun lt_10 () Bool (< hidden_states_size0 2))
(define-fun not__47 () Bool (not lt_10))
(assert not__47)
(define-fun lt_11 () Bool (< 64 mul_32))
(assert lt_11)
(define-fun lt_12 () Bool (< floordiv 2))
(define-fun not__48 () Bool (not lt_12))
(assert not__48)
(define-fun lt_13 () Bool (< 768 mul_32))
(assert lt_13)
(define-fun mul_45 () Int (* 64 floordiv))
(define-fun mul_46 () Int (* mul_45 12))
(define-fun mul_47 () Int (* mul_46 hidden_states_size0))
(define-fun mul_48 () Int (* mul_46 sub))
(define-fun add_17 () Int (+ 1 mul_48))
(define-fun mul_49 () Int (* mul_45 11))
(define-fun add_18 () Int (+ add_17 mul_49))
(define-fun mul_50 () Int (* 64 sub_8))
(define-fun add_19 () Int (+ add_18 mul_50))
(define-fun add_20 () Int (+ add_19 63))
(define-fun mul_51 () Int (* 4 add_20))
(define-fun eq_65 () Bool (= mul_45 mul_45))
(assert eq_65)
(define-fun eq_66 () Bool (= mul_46 mul_46))
(assert eq_66)
(define-fun eq_67 () Bool (= mul_45 1))
(define-fun not__49 () Bool (not eq_67))
(assert not__49)
(define-fun eq_68 () Bool (= mul_45 0))
(define-fun not__50 () Bool (not eq_68))
(assert not__50)
(define-fun lt_14 () Bool (< mul_45 0))
(define-fun not__51 () Bool (not lt_14))
(assert not__51)
(define-fun lt_15 () Bool (< 1 mul_46))
(assert lt_15)
(define-fun mul_52 () Int (* mul_4 12))
(define-fun mul_53 () Int (* mul_52 64))
(define-fun eq_69 () Bool (= mul_34 mul_53))
(assert eq_69)
(define-fun eq_70 () Bool (= floordiv hidden_states_size1))
(assert eq_70)
(define-fun eq_71 () Bool (= mul_39 -1))
(define-fun not__52 () Bool (not eq_71))
(assert not__52)
(define-fun ge_12 () Bool (>= mul_39 0))
(assert ge_12)
(define-fun eq_72 () Bool (= mul_44 mul_40))
(define-fun not__53 () Bool (not eq_72))
(assert not__53)
(define-fun mod_4 () Int (mod mul_44 mul_40))
(define-fun eq_73 () Bool (= mod_4 0))
(assert eq_73)
(define-fun floordiv_2 () Int (div mul_44 mul_40))
(define-fun eq_74 () Bool (= hidden_states_size0 mul_39))
(define-fun not__54 () Bool (not eq_74))
(assert not__54)
(define-fun eq_75 () Bool (= mul_39 hidden_states_size0))
(define-fun not__55 () Bool (not eq_75))
(assert not__55)
(define-fun mod_5 () Int (mod hidden_states_size0 mul_39))
(define-fun eq_76 () Bool (= mod_5 0))
(define-fun not__56 () Bool (not eq_76))
(assert not__56)
(define-fun mod_6 () Int (mod mul_39 mul_39))
(define-fun eq_77 () Bool (= mod_6 0))
(assert eq_77)
(define-fun mul_54 () Int (* 12 hidden_states_size0))
(define-fun lt_16 () Bool (< mul_46 mul_45))
(define-fun not__57 () Bool (not lt_16))
(assert not__57)
(define-fun gt_5 () Bool (> mul_44 0))
(assert gt_5)
(define-fun mul_55 () Int (* mul_54 floordiv))
(define-fun mul_56 () Int (* mul_55 64))
(define-fun eq_78 () Bool (= mul_56 0))
(define-fun not__58 () Bool (not eq_78))
(assert not__58)
(define-fun eq_79 () Bool (= mul_54 1))
(define-fun not__59 () Bool (not eq_79))
(assert not__59)
(define-fun mul_57 () Int (* mul_45 mul_54))
(define-fun eq_80 () Bool (= mul_39 mul_39))
(assert eq_80)
(define-fun eq_81 () Bool (= floordiv_2 floordiv))
(assert eq_81)
(define-fun mul_58 () Int (* mul_54 64))
(define-fun mul_59 () Int (* mul_58 floordiv))
(define-fun eq_82 () Bool (= mul_59 0))
(define-fun not__60 () Bool (not eq_82))
(assert not__60)
(define-fun lt_17 () Bool (< mul_54 2))
(define-fun not__61 () Bool (not lt_17))
(assert not__61)
(define-fun lt_18 () Bool (< 1 mul_45))
(assert lt_18)
(define-fun lt_19 () Bool (< 64 mul_45))
(assert lt_19)
(define-fun eq_83 () Bool (= mul_54 mul_54))
(assert eq_83)
(define-fun ge_13 () Bool (>= mul_54 0))
(assert ge_13)
(define-fun mul_60 () Int (* floordiv floordiv))
(define-fun eq_84 () Bool (= mul_54 0))
(define-fun not__62 () Bool (not eq_84))
(assert not__62)
(define-fun mul_61 () Int (* mul_60 mul_54))
(define-fun sub_9 () Int (- mul_54 1))
(define-fun mul_62 () Int (* mul_60 sub_9))
(define-fun add_21 () Int (+ 1 mul_62))
(define-fun mul_63 () Int (* floordiv sub_8))
(define-fun add_22 () Int (+ add_21 mul_63))
(define-fun add_23 () Int (+ add_22 sub_8))
(define-fun mul_64 () Int (* 4 add_23))
(define-fun mul_65 () Int (* mul_55 floordiv))
(define-fun eq_85 () Bool (= mul_65 0))
(define-fun not__63 () Bool (not eq_85))
(assert not__63)
(define-fun eq_86 () Bool (= mul_60 mul_60))
(assert eq_86)
(define-fun eq_87 () Bool (= mul_11 0))
(define-fun not__64 () Bool (not eq_87))
(assert not__64)
(define-fun eq_88 () Bool (= mul_51 0))
(define-fun not__65 () Bool (not eq_88))
(assert not__65)
(define-fun eq_89 () Bool (= mul_64 0))
(define-fun not__66 () Bool (not eq_89))
(assert not__66)
(define-fun output0_size0 () Int hidden_states_size0)
(define-fun output0_size1 () Int 12)
(define-fun output0_size2 () Int floordiv)
(define-fun output0_size3 () Int 64)
(define-fun output0_stride0 () Int mul_46)
(define-fun output0_stride1 () Int mul_45)
(define-fun output0_stride2 () Int 64)
(define-fun output0_stride3 () Int 1)
(define-fun output0_storage_offset () Int 0)
(define-fun output1_size0 () Int hidden_states_size0)
(define-fun output1_size1 () Int 12)
(define-fun output1_size2 () Int floordiv)
(define-fun output1_size3 () Int 64)
(define-fun output1_stride0 () Int mul_46)
(define-fun output1_stride1 () Int mul_45)
(define-fun output1_stride2 () Int 64)
(define-fun output1_stride3 () Int 1)
(define-fun output1_storage_offset () Int 0)
(define-fun output2_size0 () Int mul_54)
(define-fun output2_size1 () Int floordiv)
(define-fun output2_size2 () Int 64)
(define-fun output2_stride0 () Int mul_45)
(define-fun output2_stride1 () Int 64)
(define-fun output2_stride2 () Int 1)
(define-fun output2_storage_offset () Int 0)
(define-fun output3_size0 () Int mul_54)
(define-fun output3_size1 () Int floordiv)
(define-fun output3_size2 () Int floordiv)
(define-fun output3_stride0 () Int mul_60)
(define-fun output3_stride1 () Int floordiv)
(define-fun output3_stride2 () Int 1)
(define-fun output3_storage_offset () Int 0)
(check-sat)
(get-value (hidden_states_size0 hidden_states_size1 hidden_states_size2 hidden_states_stride0 hidden_states_stride1 hidden_states_stride2 hidden_states_storage_offset attention_mask_size0 attention_mask_size1 attention_mask_size2 attention_mask_size3 attention_mask_stride0 attention_mask_stride1 attention_mask_stride2 attention_mask_stride3 attention_mask_storage_offset output0_size0 output0_size1 output0_size2 output0_size3 output0_stride0 output0_stride1 output0_stride2 output0_stride3 output0_storage_offset output1_size0 output1_size1 output1_size2 output1_size3 output1_stride0 output1_stride1 output1_stride2 output1_stride3 output1_storage_offset output2_size0 output2_size1 output2_size2 output2_stride0 output2_stride1 output2_stride2 output2_storage_offset output3_size0 output3_size1 output3_size2 output3_stride0 output3_stride1 output3_stride2 output3_storage_offset))
